N = 6;
H = 5;
T = 2;

avail = array3d(1..N, 1..H, 1..T, [7, 0, 4, 7, 7, 1, 9, 8, 10, 2, 7, 8, 4, 9, 6, 9, 3, 3, 7, 4, 7, 5, 7, 3, 2, 5, 4, 7, 8, 4, 3, 4, 4, 0, 2, 7, 6, 6, 3, 7, 9, 7, 8, 7, 3, 6, 6, 7, 6, 9, 2, 3, 1, 6, 7, 1, 4, 6, 1, 6]);

r = array2d(1..H, 1..T, [0, 2, 2, 1, 1, 1, 2, 2, 1, 0]);
